
Gurobi 6.5.2 (linux64) logging started Tue Sep  6 10:06:18 2016

Optimize a model with 41 rows, 115 columns and 273 nonzeros
Coefficient statistics:
  Matrix range    [1e+00, 2e+00]
  Objective range [4e+00, 1e+02]
  Bounds range    [1e+00, 1e+00]
  RHS range       [1e+00, 1e+00]
Presolve removed 17 rows and 5 columns
Presolve time: 0.00s
Presolved: 24 rows, 110 columns, 219 nonzeros
Variable types: 0 continuous, 110 integer (110 binary)
Found heuristic solution: objective 1299.0000000

Root relaxation: objective 4.855000e+02, 20 iterations, 0.00 seconds

    Nodes    |    Current Node    |     Objective Bounds      |     Work
 Expl Unexpl |  Obj  Depth IntInf | Incumbent    BestBd   Gap | It/Node Time

     0     0  485.50000    0    4 1299.00000  485.50000  62.6%     -    0s
H    0     0                     772.0000000  485.50000  37.1%     -    0s
     0     0  521.50000    0    6  772.00000  521.50000  32.4%     -    0s
     0     0  526.00000    0    4  772.00000  526.00000  31.9%     -    0s
     0     0  527.75000    0    7  772.00000  527.75000  31.6%     -    0s
     0     0  531.41667    0   14  772.00000  531.41667  31.2%     -    0s
     0     0  531.66667    0   13  772.00000  531.66667  31.1%     -    0s
     0     0  532.00000    0    4  772.00000  532.00000  31.1%     -    0s
     0     0  534.44444    0   16  772.00000  534.44444  30.8%     -    0s
H    0     0                     678.0000000  534.44444  21.2%     -    0s
     0     0  534.44444    0   16  678.00000  534.44444  21.2%     -    0s
     0     2  534.44444    0   16  678.00000  534.44444  21.2%     -    0s
*   82     2               7     630.0000000  555.00000  11.9%   2.6    0s
*  186    17               6     588.0000000  555.00000  5.61%   2.9    0s
*  296     2               6     586.0000000  574.00000  2.05%   3.0    0s

Cutting planes:
  Gomory: 4
  Cover: 7
  MIR: 3
  Lazy constraints: 50

Explored 315 nodes (952 simplex iterations) in 0.03 seconds
Thread count was 8 (of 8 available processors)

Optimal solution found (tolerance 1.00e-04)
Best objective 5.860000000000e+02, best bound 5.860000000000e+02, gap 0.0%
